p cnf 48 147
a 42 4 0
e 1 2 3 5 6 7 8 9 10 11 12 13 14 15 16 17 18 19 20 21 22 23 24 25 26 27 28 29 30 31 32 33 34 35 36 37 38 39 40 41 43 44 45 46 47 48 0
3 -1 0
3 2 0
1 -2 -3 0
-4 3 0
-4 2 0
-3 -2 4 0
4 5 -6 0
-4 -5 -6 0
4 -5 6 0
-4 5 6 0
2 -7 -8 0
-2 7 -8 0
2 7 8 0
-2 -7 8 0
-4 8 -9 0
4 -8 -9 0
-4 -8 9 0
4 8 9 0
4 -9 -10 0
-4 9 -10 0
4 9 10 0
-4 -9 10 0
1 -5 -11 0
-1 5 -11 0
1 5 11 0
-1 -5 11 0
-11 12 0
11 12 0
13 14 -15 0
-13 -14 -15 0
13 -14 15 0
-13 14 15 0
12 -15 -16 0
-12 15 -16 0
12 15 16 0
-12 -15 16 0
-17 -10 0
-17 16 0
10 -16 17 0
6 17 -18 0
-6 -17 -18 0
6 -17 18 0
-6 17 18 0
-10 -19 -20 0
10 19 -20 0
-10 19 20 0
10 -19 20 0
20 10 -21 0
-20 -10 -21 0
20 -10 21 0
-20 10 21 0
22 -15 0
22 -2 0
15 2 -22 0
-7 23 0
7 23 0
-24 7 0
-24 -2 0
-7 2 24 0
25 -24 0
25 4 0
24 -4 -25 0
-26 25 0
-26 13 0
-25 -13 26 0
-27 -23 0
-27 -26 0
23 26 27 0
28 22 0
28 27 0
-22 -27 -28 0
30 -14 0
30 29 0
14 -29 -30 0
-28 30 -31 0
28 -30 -31 0
-28 -30 31 0
28 30 31 0
32 21 0
32 -31 0
-21 31 -32 0
4 9 -33 0
-4 -9 -33 0
4 -9 33 0
-4 9 33 0
-33 -13 -34 0
33 13 -34 0
-33 13 34 0
33 -13 34 0
11 24 -35 0
-11 -24 -35 0
11 -24 35 0
-11 24 35 0
-36 1 0
-36 -9 0
-1 9 36 0
37 -36 0
37 -3 0
36 3 -37 0
38 35 0
38 37 0
-35 -37 -38 0
39 -34 0
39 -38 0
34 38 -39 0
-32 39 -40 0
32 -39 -40 0
-32 -39 40 0
32 39 40 0
-41 -18 0
-41 -40 0
18 40 41 0
42 -2 0
42 -5 0
2 5 -42 0
-43 -3 0
-43 -3 0
3 43 0
-44 42 0
-44 43 0
-42 -43 44 0
-7 45 0
7 45 0
46 -12 0
46 45 0
12 -45 -46 0
44 46 -47 0
-44 -46 -47 0
44 -46 47 0
-44 46 47 0
-48 -41 0
-48 -47 0
41 47 48 0
-11 -1 -7 27 17 -13 0
-45 24 -30 2 34 -10 20 18 0
-45 19 35 47 3 -39 0
30 -20 -1 44 0
6 46 30 -28 16 43 0
29 -18 -38 -46 -25 0
-43 40 -2 44 0
-43 16 15 34 -9 -36 19 13 0
-12 36 -11 -48 40 -38 7 0
-10 -9 -2 48 -30 -45 0
-8 -28 48 -46 -11 1 35 40 0
-3 33 -23 -46 48 -27 -38 0
6 -43 5 2 20 -16 12 -46 0
48 0
